p cnf 23 57
a 16 20 0
e 1 2 3 4 5 6 7 8 9 10 11 12 13 14 15 17 18 19 21 22 23 0
1 -2 -3 0
-1 2 -3 0
1 2 3 0
-1 -2 3 0
6 -4 0
6 -5 0
4 5 -6 0
8 9 -10 0
-8 -9 -10 0
8 -9 10 0
-8 9 10 0
11 7 0
11 -10 0
-7 10 -11 0
11 4 -12 0
-11 -4 -12 0
11 -4 12 0
-11 4 12 0
11 -12 -13 0
-11 12 -13 0
11 12 13 0
-11 -12 13 0
14 -6 0
14 13 0
6 -13 -14 0
-15 -7 0
-15 5 0
7 -5 15 0
-15 1 -16 0
15 -1 -16 0
-15 -1 16 0
15 1 16 0
-17 -10 0
-17 12 0
10 -12 17 0
-18 -16 0
-18 -17 0
16 17 18 0
19 8 -20 0
-19 -8 -20 0
19 -8 20 0
-19 8 20 0
-21 18 0
-21 20 0
-18 -20 21 0
-22 -14 0
-22 21 0
14 -21 22 0
23 -3 0
23 22 0
3 -22 -23 0
-3 10 -12 16 20 11 0
21 22 -10 15 -7 11 -23 0
3 6 -22 23 -1 -9 0
-20 -8 15 0
14 -8 -15 0
23 0
